csp500

VEHICLE
NUMBER     CAPACITY
  1000      1000000

CUSTOMER
CUST NO.  XCOORD.    YCOORD.    DEMAND   READY TIME   DUE DATE   SERVICE TIME
 
    0      0         0         0         0         0         0
    1      1         1         1         4         65         61
    2      2         2         1         6         68         62
    3      3         3         1         8         154         146
    4      4         4         1         11         121         110
    5      5         5         1         12         126         114
    6      6         6         1         14         40         26
    7      7         7         1         15         41         26
    8      8         8         1         20         57         37
    9      9         9         1         20         37         17
    10      10         10         1         26         229         203
    11      11         11         1         29         166         137
    12      12         12         1         33         134         101
    13      13         13         1         39         271         232
    14      14         14         1         49         74         25
    15      15         15         1         52         262         210
    16      16         16         1         57         177         120
    17      17         17         1         62         122         60
    18      18         18         1         63         240         177
    19      19         19         1         65         248         183
    20      20         20         1         65         144         79
    21      21         21         1         68         174         106
    22      22         22         1         71         295         224
    23      23         23         1         75         178         103
    24      24         24         1         78         268         190
    25      25         25         1         80         122         42
    26      26         26         1         83         315         232
    27      27         27         1         87         104         17
    28      28         28         1         93         173         80
    29      29         29         1         98         244         146
    30      30         30         1         102         121         19
    31      31         31         1         104         320         216
    32      32         32         1         106         177         71
    33      33         33         1         108         325         217
    34      34         34         1         110         267         157
    35      35         35         1         110         264         154
    36      36         36         1         113         189         76
    37      37         37         1         115         145         30
    38      38         38         1         121         268         147
    39      39         39         1         131         286         155
    40      40         40         1         131         187         56
    41      41         41         1         141         173         32
    42      42         42         1         144         256         112
    43      43         43         1         145         286         141
    44      44         44         1         146         212         66
    45      45         45         1         159         388         229
    46      46         46         1         165         249         84
    47      47         47         1         166         331         165
    48      48         48         1         167         309         142
    49      49         49         1         170         395         225
    50      50         50         1         171         264         93
    51      51         51         1         174         400         226
    52      52         52         1         176         387         211
    53      53         53         1         183         402         219
    54      54         54         1         186         298         112
    55      55         55         1         187         384         197
    56      56         56         1         187         370         183
    57      57         57         1         188         376         188
    58      58         58         1         191         396         205
    59      59         59         1         191         247         56
    60      60         60         1         201         352         151
    61      61         61         1         214         327         113
    62      62         62         1         215         420         205
    63      63         63         1         220         311         91
    64      64         64         1         229         390         161
    65      65         65         1         237         384         147
    66      66         66         1         247         405         158
    67      67         67         1         248         409         161
    68      68         68         1         252         427         175
    69      69         69         1         260         301         41
    70      70         70         1         261         364         103
    71      71         71         1         272         296         24
    72      72         72         1         274         388         114
    73      73         73         1         276         403         127
    74      74         74         1         278         454         176
    75      75         75         1         278         383         105
    76      76         76         1         279         485         206
    77      77         77         1         280         403         123
    78      78         78         1         292         425         133
    79      79         79         1         293         450         157
    80      80         80         1         293         485         192
    81      81         81         1         298         354         56
    82      82         82         1         299         453         154
    83      83         83         1         300         406         106
    84      84         84         1         307         531         224
    85      85         85         1         307         505         198
    86      86         86         1         317         334         17
    87      87         87         1         317         499         182
    88      88         88         1         318         517         199
    89      89         89         1         320         552         232
    90      90         90         1         321         513         192
    91      91         91         1         327         511         184
    92      92         92         1         328         465         137
    93      93         93         1         329         379         50
    94      94         94         1         331         457         126
    95      95         95         1         332         486         154
    96      96         96         1         335         485         150
    97      97         97         1         335         462         127
    98      98         98         1         336         409         73
    99      99         99         1         336         421         85
    100      100         100         1         341         518         177
    101      101         101         1         343         495         152
    102      102         102         1         343         413         70
    103      103         103         1         346         474         128
    104      104         104         1         348         487         139
    105      105         105         1         350         388         38
    106      106         106         1         354         489         135
    107      107         107         1         358         393         35
    108      108         108         1         359         454         95
    109      109         109         1         361         470         109
    110      110         110         1         362         534         172
    111      111         111         1         363         548         185
    112      112         112         1         365         526         161
    113      113         113         1         371         577         206
    114      114         114         1         371         502         131
    115      115         115         1         375         393         18
    116      116         116         1         376         514         138
    117      117         117         1         385         405         20
    118      118         118         1         387         594         207
    119      119         119         1         388         491         103
    120      120         120         1         391         578         187
    121      121         121         1         394         589         195
    122      122         122         1         394         479         85
    123      123         123         1         407         618         211
    124      124         124         1         409         540         131
    125      125         125         1         411         485         74
    126      126         126         1         413         572         159
    127      127         127         1         413         550         137
    128      128         128         1         415         557         142
    129      129         129         1         416         645         229
    130      130         130         1         420         507         87
    131      131         131         1         427         506         79
    132      132         132         1         427         521         94
    133      133         133         1         431         563         132
    134      134         134         1         435         455         20
    135      135         135         1         440         606         166
    136      136         136         1         440         492         52
    137      137         137         1         444         543         99
    138      138         138         1         449         641         192
    139      139         139         1         450         485         35
    140      140         140         1         460         482         22
    141      141         141         1         461         573         112
    142      142         142         1         462         482         20
    143      143         143         1         469         682         213
    144      144         144         1         470         643         173
    145      145         145         1         479         562         83
    146      146         146         1         482         652         170
    147      147         147         1         483         674         191
    148      148         148         1         485         563         78
    149      149         149         1         486         677         191
    150      150         150         1         490         563         73
    151      151         151         1         490         634         144
    152      152         152         1         492         619         127
    153      153         153         1         496         656         160
    154      154         154         1         496         691         195
    155      155         155         1         498         672         174
    156      156         156         1         500         547         47
    157      157         157         1         502         619         117
    158      158         158         1         503         671         168
    159      159         159         1         508         691         183
    160      160         160         1         509         555         46
    161      161         161         1         512         605         93
    162      162         162         1         515         644         129
    163      163         163         1         516         538         22
    164      164         164         1         518         719         201
    165      165         165         1         522         658         136
    166      166         166         1         524         708         184
    167      167         167         1         534         585         51
    168      168         168         1         536         757         221
    169      169         169         1         541         621         80
    170      170         170         1         546         651         105
    171      171         171         1         547         690         143
    172      172         172         1         547         609         62
    173      173         173         1         549         657         108
    174      174         174         1         553         672         119
    175      175         175         1         561         679         118
    176      176         176         1         562         793         231
    177      177         177         1         564         660         96
    178      178         178         1         566         582         16
    179      179         179         1         566         780         214
    180      180         180         1         566         643         77
    181      181         181         1         570         769         199
    182      182         182         1         570         648         78
    183      183         183         1         571         740         169
    184      184         184         1         572         767         195
    185      185         185         1         574         624         50
    186      186         186         1         575         653         78
    187      187         187         1         577         692         115
    188      188         188         1         586         635         49
    189      189         189         1         587         647         60
    190      190         190         1         592         806         214
    191      191         191         1         593         631         38
    192      192         192         1         593         765         172
    193      193         193         1         594         806         212
    194      194         194         1         595         704         109
    195      195         195         1         597         713         116
    196      196         196         1         605         693         88
    197      197         197         1         612         687         75
    198      198         198         1         615         789         174
    199      199         199         1         617         818         201
    200      200         200         1         618         674         56
    201      201         201         1         618         710         92
    202      202         202         1         627         800         173
    203      203         203         1         628         773         145
    204      204         204         1         629         802         173
    205      205         205         1         635         799         164
    206      206         206         1         636         857         221
    207      207         207         1         639         664         25
    208      208         208         1         642         854         212
    209      209         209         1         645         698         53
    210      210         210         1         646         666         20
    211      211         211         1         646         700         54
    212      212         212         1         647         709         62
    213      213         213         1         652         843         191
    214      214         214         1         655         812         157
    215      215         215         1         656         742         86
    216      216         216         1         656         891         235
    217      217         217         1         657         696         39
    218      218         218         1         660         743         83
    219      219         219         1         667         758         91
    220      220         220         1         675         785         110
    221      221         221         1         680         778         98
    222      222         222         1         680         803         123
    223      223         223         1         686         872         186
    224      224         224         1         687         799         112
    225      225         225         1         687         870         183
    226      226         226         1         688         707         19
    227      227         227         1         688         751         63
    228      228         228         1         692         746         54
    229      229         229         1         692         709         17
    230      230         230         1         693         882         189
    231      231         231         1         693         894         201
    232      232         232         1         695         750         55
    233      233         233         1         696         839         143
    234      234         234         1         703         862         159
    235      235         235         1         710         950         240
    236      236         236         1         713         877         164
    237      237         237         1         714         784         70
    238      238         238         1         721         909         188
    239      239         239         1         723         749         26
    240      240         240         1         725         742         17
    241      241         241         1         731         823         92
    242      242         242         1         732         837         105
    243      243         243         1         733         900         167
    244      244         244         1         734         803         69
    245      245         245         1         744         885         141
    246      246         246         1         748         884         136
    247      247         247         1         756         780         24
    248      248         248         1         757         816         59
    249      249         249         1         757         860         103
    250      250         250         1         757         819         62
    251      251         251         1         759         787         28
    252      252         252         1         765         824         59
    253      253         253         1         768         822         54
    254      254         254         1         769         986         217
    255      255         255         1         771         807         36
    256      256         256         1         772         916         144
    257      257         257         1         773         792         19
    258      258         258         1         779         1002         223
    259      259         259         1         780         917         137
    260      260         260         1         783         810         27
    261      261         261         1         783         837         54
    262      262         262         1         789         922         133
    263      263         263         1         790         997         207
    264      264         264         1         790         855         65
    265      265         265         1         794         924         130
    266      266         266         1         794         1020         226
    267      267         267         1         794         958         164
    268      268         268         1         798         837         39
    269      269         269         1         799         857         58
    270      270         270         1         799         828         29
    271      271         271         1         800         916         116
    272      272         272         1         804         1031         227
    273      273         273         1         809         984         175
    274      274         274         1         814         874         60
    275      275         275         1         817         889         72
    276      276         276         1         818         944         126
    277      277         277         1         823         1050         227
    278      278         278         1         830         910         80
    279      279         279         1         831         934         103
    280      280         280         1         832         849         17
    281      281         281         1         849         1076         227
    282      282         282         1         850         1083         233
    283      283         283         1         853         1050         197
    284      284         284         1         863         1041         178
    285      285         285         1         868         960         92
    286      286         286         1         870         991         121
    287      287         287         1         871         888         17
    288      288         288         1         873         1044         171
    289      289         289         1         873         1043         170
    290      290         290         1         875         1065         190
    291      291         291         1         880         1095         215
    292      292         292         1         880         1071         191
    293      293         293         1         881         933         52
    294      294         294         1         883         1019         136
    295      295         295         1         883         926         43
    296      296         296         1         883         1034         151
    297      297         297         1         886         1081         195
    298      298         298         1         891         1057         166
    299      299         299         1         893         989         96
    300      300         300         1         893         1008         115
    301      301         301         1         895         943         48
    302      302         302         1         900         1066         166
    303      303         303         1         901         1102         201
    304      304         304         1         903         945         42
    305      305         305         1         904         999         95
    306      306         306         1         906         1146         240
    307      307         307         1         909         1126         217
    308      308         308         1         916         1005         89
    309      309         309         1         916         1023         107
    310      310         310         1         920         1110         190
    311      311         311         1         921         1069         148
    312      312         312         1         922         945         23
    313      313         313         1         929         1003         74
    314      314         314         1         932         1130         198
    315      315         315         1         933         1062         129
    316      316         316         1         933         1041         108
    317      317         317         1         935         1007         72
    318      318         318         1         936         992         56
    319      319         319         1         939         1032         93
    320      320         320         1         940         1159         219
    321      321         321         1         940         987         47
    322      322         322         1         954         1027         73
    323      323         323         1         955         1122         167
    324      324         324         1         956         1164         208
    325      325         325         1         956         1196         240
    326      326         326         1         958         1093         135
    327      327         327         1         958         1110         152
    328      328         328         1         959         1008         49
    329      329         329         1         962         1108         146
    330      330         330         1         962         1079         117
    331      331         331         1         963         1078         115
    332      332         332         1         965         1190         225
    333      333         333         1         966         1039         73
    334      334         334         1         970         1166         196
    335      335         335         1         973         1111         138
    336      336         336         1         977         1055         78
    337      337         337         1         978         1069         91
    338      338         338         1         980         1056         76
    339      339         339         1         984         1131         147
    340      340         340         1         984         1104         120
    341      341         341         1         987         1136         149
    342      342         342         1         992         1095         103
    343      343         343         1         995         1043         48
    344      344         344         1         996         1166         170
    345      345         345         1         1000         1137         137
    346      346         346         1         1003         1218         215
    347      347         347         1         1005         1132         127
    348      348         348         1         1006         1044         38
    349      349         349         1         1006         1136         130
    350      350         350         1         1008         1026         18
    351      351         351         1         1011         1177         166
    352      352         352         1         1019         1068         49
    353      353         353         1         1021         1083         62
    354      354         354         1         1024         1162         138
    355      355         355         1         1028         1150         122
    356      356         356         1         1030         1161         131
    357      357         357         1         1032         1230         198
    358      358         358         1         1040         1279         239
    359      359         359         1         1041         1161         120
    360      360         360         1         1042         1144         102
    361      361         361         1         1042         1137         95
    362      362         362         1         1043         1219         176
    363      363         363         1         1046         1277         231
    364      364         364         1         1050         1084         34
    365      365         365         1         1054         1077         23
    366      366         366         1         1062         1121         59
    367      367         367         1         1066         1083         17
    368      368         368         1         1071         1241         170
    369      369         369         1         1071         1220         149
    370      370         370         1         1072         1120         48
    371      371         371         1         1073         1209         136
    372      372         372         1         1073         1288         215
    373      373         373         1         1076         1161         85
    374      374         374         1         1077         1273         196
    375      375         375         1         1080         1290         210
    376      376         376         1         1081         1259         178
    377      377         377         1         1083         1100         17
    378      378         378         1         1089         1308         219
    379      379         379         1         1091         1236         145
    380      380         380         1         1094         1221         127
    381      381         381         1         1095         1169         74
    382      382         382         1         1104         1259         155
    383      383         383         1         1105         1153         48
    384      384         384         1         1107         1315         208
    385      385         385         1         1109         1323         214
    386      386         386         1         1109         1202         93
    387      387         387         1         1110         1235         125
    388      388         388         1         1112         1211         99
    389      389         389         1         1114         1270         156
    390      390         390         1         1115         1280         165
    391      391         391         1         1116         1144         28
    392      392         392         1         1116         1277         161
    393      393         393         1         1120         1359         239
    394      394         394         1         1121         1284         163
    395      395         395         1         1123         1349         226
    396      396         396         1         1126         1322         196
    397      397         397         1         1126         1364         238
    398      398         398         1         1128         1248         120
    399      399         399         1         1129         1257         128
    400      400         400         1         1134         1161         27
    401      401         401         1         1136         1327         191
    402      402         402         1         1137         1327         190
    403      403         403         1         1138         1311         173
    404      404         404         1         1140         1342         202
    405      405         405         1         1141         1258         117
    406      406         406         1         1158         1349         191
    407      407         407         1         1161         1392         231
    408      408         408         1         1162         1323         161
    409      409         409         1         1166         1351         185
    410      410         410         1         1167         1372         205
    411      411         411         1         1167         1290         123
    412      412         412         1         1172         1371         199
    413      413         413         1         1173         1367         194
    414      414         414         1         1181         1233         52
    415      415         415         1         1182         1274         92
    416      416         416         1         1183         1256         73
    417      417         417         1         1194         1314         120
    418      418         418         1         1198         1315         117
    419      419         419         1         1198         1258         60
    420      420         420         1         1204         1437         233
    421      421         421         1         1207         1278         71
    422      422         422         1         1208         1330         122
    423      423         423         1         1212         1433         221
    424      424         424         1         1214         1412         198
    425      425         425         1         1216         1347         131
    426      426         426         1         1223         1324         101
    427      427         427         1         1225         1410         185
    428      428         428         1         1226         1349         123
    429      429         429         1         1231         1395         164
    430      430         430         1         1235         1455         220
    431      431         431         1         1240         1334         94
    432      432         432         1         1248         1470         222
    433      433         433         1         1252         1422         170
    434      434         434         1         1256         1489         233
    435      435         435         1         1256         1279         23
    436      436         436         1         1256         1443         187
    437      437         437         1         1257         1458         201
    438      438         438         1         1258         1406         148
    439      439         439         1         1260         1328         68
    440      440         440         1         1262         1285         23
    441      441         441         1         1263         1453         190
    442      442         442         1         1264         1389         125
    443      443         443         1         1272         1296         24
    444      444         444         1         1279         1511         232
    445      445         445         1         1281         1433         152
    446      446         446         1         1287         1467         180
    447      447         447         1         1288         1492         204
    448      448         448         1         1290         1515         225
    449      449         449         1         1294         1467         173
    450      450         450         1         1296         1483         187
    451      451         451         1         1299         1326         27
    452      452         452         1         1306         1533         227
    453      453         453         1         1314         1383         69
    454      454         454         1         1314         1547         233
    455      455         455         1         1318         1460         142
    456      456         456         1         1320         1490         170
    457      457         457         1         1320         1381         61
    458      458         458         1         1321         1527         206
    459      459         459         1         1321         1526         205
    460      460         460         1         1326         1469         143
    461      461         461         1         1330         1459         129
    462      462         462         1         1334         1522         188
    463      463         463         1         1338         1536         198
    464      464         464         1         1341         1564         223
    465      465         465         1         1351         1535         184
    466      466         466         1         1352         1510         158
    467      467         467         1         1353         1585         232
    468      468         468         1         1354         1407         53
    469      469         469         1         1355         1536         181
    470      470         470         1         1355         1431         76
    471      471         471         1         1360         1518         158
    472      472         472         1         1362         1560         198
    473      473         473         1         1365         1529         164
    474      474         474         1         1369         1580         211
    475      475         475         1         1369         1488         119
    476      476         476         1         1378         1551         173
    477      477         477         1         1380         1558         178
    478      478         478         1         1385         1460         75
    479      479         479         1         1385         1487         102
    480      480         480         1         1392         1453         61
    481      481         481         1         1394         1550         156
    482      482         482         1         1396         1596         200
    483      483         483         1         1396         1617         221
    484      484         484         1         1400         1488         88
    485      485         485         1         1404         1472         68
    486      486         486         1         1405         1447         42
    487      487         487         1         1405         1585         180
    488      488         488         1         1407         1448         41
    489      489         489         1         1407         1620         213
    490      490         490         1         1409         1583         174
    491      491         491         1         1409         1517         108
    492      492         492         1         1412         1486         74
    493      493         493         1         1412         1514         102
    494      494         494         1         1419         1467         48
    495      495         495         1         1420         1481         61
    496      496         496         1         1425         1663         238
    497      497         497         1         1430         1525         95
    498      498         498         1         1431         1597         166
    499      499         499         1         1432         1458         26
    500      500         500         1         1433         1462         29
